Problem:    m2_uuu
Rows:       236
Columns:    210
Non-zeros:  2364
Status:     OPTIMAL
Objective:  f = 115.3333333 (MINimum)

   No.   Row name   St   Activity     Lower bound   Upper bound    Marginal
------ ------------ -- ------------- ------------- ------------- -------------
     1 f            B        103.333                             
     2 Wait[1]      B              0            -0             = 
     3 Wait[2]      B              0            -0             = 
     4 Wait[3]      B              0            -0             = 
     5 Wait[4]      B              0            -0             = 
     6 Wait[5]      B              0            -0             = 
     7 Wait[6]      B              0            -0             = 
     8 WorkDone[1]  NS             3             3             =       10.6667 
     9 WorkDone[2]  NS             3             3             =       10.6667 
    10 WorkDone[3]  NS             3             3             =       10.6667 
    11 WorkDone[4]  NS             3             3             =       10.6667 
    12 WorkDone[5]  NS             3             3             =       10.6667 
    13 WorkDone[6]  NS             3             3             =       10.6667 
    14 OneInCol[1]  NU             1                           1      -10.6667 
    15 OneInCol[2]  NU             1                           1           -10 
    16 OneInCol[3]  NU             1                           1      -9.33333 
    17 OneInCol[4]  NU             1                           1      -8.66667 
    18 OneInCol[5]  NU             1                           1            -8 
    19 OneInCol[6]  NU             1                           1      -7.33333 
    20 OneInCol[7]  NU             1                           1      -6.66667 
    21 OneInCol[8]  NU             1                           1            -6 
    22 OneInCol[9]  NU             1                           1      -5.33333 
    23 OneInCol[10] NU             1                           1      -4.66667 
    24 OneInCol[11] NU             1                           1            -4 
    25 OneInCol[12] NU             1                           1      -3.33333 
    26 OneInCol[13] NU             1                           1      -2.66667 
    27 OneInCol[14] NU             1                           1            -2 
    28 OneInCol[15] NU             1                           1      -1.33333 
    29 OneInCol[16] NU             1                           1     -0.666667 
    30 OneInCol[17] B              1                           1 
    31 OneInCol[18] NU             1                           1         < eps
    32 cn_y1[1,1]   NU             0                          -0     -0.666667 
    33 cn_y1[1,2]   NU             0                          -0     -0.666667 
    34 cn_y1[1,3]   NU             0                          -0     -0.666667 
    35 cn_y1[1,4]   NU             0                          -0     -0.666667 
    36 cn_y1[1,5]   NU             0                          -0     -0.666667 
    37 cn_y1[1,6]   NU             0                          -0     -0.666667 
    38 cn_y1[1,7]   NU             0                          -0     -0.666667 
    39 cn_y1[1,8]   NU             0                          -0     -0.666667 
    40 cn_y1[1,9]   NU             0                          -0     -0.666667 
    41 cn_y1[1,10]  NU             0                          -0     -0.666667 
    42 cn_y1[1,11]  NU             0                          -0     -0.666667 
    43 cn_y1[1,12]  NU             0                          -0     -0.666667 
    44 cn_y1[1,13]  NU             0                          -0     -0.666667 
    45 cn_y1[1,14]  NU             0                          -0     -0.666667 
    46 cn_y1[1,15]  NU             0                          -0     -0.666667 
    47 cn_y1[1,16]  NU             0                          -0     -0.666667 
    48 cn_y1[1,17]  NU             0                          -0         < eps
    49 cn_y1[2,1]   NU             0                          -0     -0.666667 
    50 cn_y1[2,2]   NU             0                          -0     -0.666667 
    51 cn_y1[2,3]   NU             0                          -0     -0.666667 
    52 cn_y1[2,4]   NU             0                          -0     -0.666667 
    53 cn_y1[2,5]   NU             0                          -0     -0.666667 
    54 cn_y1[2,6]   NU             0                          -0     -0.666667 
    55 cn_y1[2,7]   NU             0                          -0     -0.666667 
    56 cn_y1[2,8]   NU             0                          -0     -0.666667 
    57 cn_y1[2,9]   NU             0                          -0     -0.666667 
    58 cn_y1[2,10]  NU             0                          -0     -0.666667 
    59 cn_y1[2,11]  NU             0                          -0     -0.666667 
    60 cn_y1[2,12]  NU             0                          -0     -0.666667 
    61 cn_y1[2,13]  NU             0                          -0     -0.666667 
    62 cn_y1[2,14]  NU             0                          -0     -0.666667 
    63 cn_y1[2,15]  NU             0                          -0     -0.666667 
    64 cn_y1[2,16]  NU             0                          -0     -0.666667 
    65 cn_y1[2,17]  NU             0                          -0         < eps
    66 cn_y1[3,1]   NU             0                          -0     -0.666667 
    67 cn_y1[3,2]   NU             0                          -0     -0.666667 
    68 cn_y1[3,3]   NU             0                          -0     -0.666667 
    69 cn_y1[3,4]   NU             0                          -0     -0.666667 
    70 cn_y1[3,5]   NU             0                          -0     -0.666667 
    71 cn_y1[3,6]   NU             0                          -0     -0.666667 
    72 cn_y1[3,7]   NU             0                          -0     -0.666667 
    73 cn_y1[3,8]   NU             0                          -0     -0.666667 
    74 cn_y1[3,9]   NU             0                          -0     -0.666667 
    75 cn_y1[3,10]  NU             0                          -0     -0.666667 
    76 cn_y1[3,11]  NU             0                          -0     -0.666667 
    77 cn_y1[3,12]  NU             0                          -0     -0.666667 
    78 cn_y1[3,13]  NU             0                          -0     -0.666667 
    79 cn_y1[3,14]  NU             0                          -0     -0.666667 
    80 cn_y1[3,15]  NU             0                          -0     -0.666667 
    81 cn_y1[3,16]  NU             0                          -0     -0.666667 
    82 cn_y1[3,17]  NU             0                          -0         < eps
    83 cn_y1[4,1]   NU             0                          -0     -0.666667 
    84 cn_y1[4,2]   NU             0                          -0     -0.666667 
    85 cn_y1[4,3]   NU             0                          -0     -0.666667 
    86 cn_y1[4,4]   NU             0                          -0     -0.666667 
    87 cn_y1[4,5]   NU             0                          -0     -0.666667 
    88 cn_y1[4,6]   NU             0                          -0     -0.666667 
    89 cn_y1[4,7]   NU             0                          -0     -0.666667 
    90 cn_y1[4,8]   NU             0                          -0     -0.666667 
    91 cn_y1[4,9]   NU             0                          -0     -0.666667 
    92 cn_y1[4,10]  NU             0                          -0     -0.666667 
    93 cn_y1[4,11]  NU             0                          -0     -0.666667 
    94 cn_y1[4,12]  NU             0                          -0     -0.666667 
    95 cn_y1[4,13]  NU             0                          -0     -0.666667 
    96 cn_y1[4,14]  NU             0                          -0     -0.666667 
    97 cn_y1[4,15]  NU             0                          -0     -0.666667 
    98 cn_y1[4,16]  NU             0                          -0     -0.666667 
    99 cn_y1[4,17]  NU             0                          -0         < eps
   100 cn_y1[5,1]   NU             0                          -0     -0.666667 
   101 cn_y1[5,2]   NU             0                          -0     -0.666667 
   102 cn_y1[5,3]   NU             0                          -0     -0.666667 
   103 cn_y1[5,4]   NU             0                          -0     -0.666667 
   104 cn_y1[5,5]   NU             0                          -0     -0.666667 
   105 cn_y1[5,6]   NU             0                          -0     -0.666667 
   106 cn_y1[5,7]   NU             0                          -0     -0.666667 
   107 cn_y1[5,8]   NU             0                          -0     -0.666667 
   108 cn_y1[5,9]   NU             0                          -0     -0.666667 
   109 cn_y1[5,10]  NU             0                          -0     -0.666667 
   110 cn_y1[5,11]  NU             0                          -0     -0.666667 
   111 cn_y1[5,12]  NU             0                          -0     -0.666667 
   112 cn_y1[5,13]  NU             0                          -0     -0.666667 
   113 cn_y1[5,14]  NU             0                          -0     -0.666667 
   114 cn_y1[5,15]  NU             0                          -0     -0.666667 
   115 cn_y1[5,16]  NU             0                          -0     -0.666667 
   116 cn_y1[5,17]  NU             0                          -0         < eps
   117 cn_y1[6,1]   NU             0                          -0     -0.666667 
   118 cn_y1[6,2]   NU             0                          -0     -0.666667 
   119 cn_y1[6,3]   NU             0                          -0     -0.666667 
   120 cn_y1[6,4]   NU             0                          -0     -0.666667 
   121 cn_y1[6,5]   NU             0                          -0     -0.666667 
   122 cn_y1[6,6]   NU             0                          -0     -0.666667 
   123 cn_y1[6,7]   NU             0                          -0     -0.666667 
   124 cn_y1[6,8]   NU             0                          -0     -0.666667 
   125 cn_y1[6,9]   NU             0                          -0     -0.666667 
   126 cn_y1[6,10]  NU             0                          -0     -0.666667 
   127 cn_y1[6,11]  NU             0                          -0     -0.666667 
   128 cn_y1[6,12]  NU             0                          -0     -0.666667 
   129 cn_y1[6,13]  NU             0                          -0     -0.666667 
   130 cn_y1[6,14]  NU             0                          -0     -0.666667 
   131 cn_y1[6,15]  NU             0                          -0     -0.666667 
   132 cn_y1[6,16]  NU             0                          -0     -0.666667 
   133 cn_y1[6,17]  B             -2                          -0 
   134 cn_y2[1,1]   B        1.33333            -0               
   135 cn_y2[1,2]   B       0.666667            -0               
   136 cn_y2[1,3]   B              0            -0               
   137 cn_y2[1,4]   B              0            -0               
   138 cn_y2[1,5]   B              0            -0               
   139 cn_y2[1,6]   B              0            -0               
   140 cn_y2[1,7]   B              0            -0               
   141 cn_y2[1,8]   B              0            -0               
   142 cn_y2[1,9]   B              0            -0               
   143 cn_y2[1,10]  B              0            -0               
   144 cn_y2[1,11]  B              0            -0               
   145 cn_y2[1,12]  B              0            -0               
   146 cn_y2[1,13]  B              0            -0               
   147 cn_y2[1,14]  B              0            -0               
   148 cn_y2[1,15]  B              0            -0               
   149 cn_y2[1,16]  B              0            -0               
   150 cn_y2[1,17]  B              0            -0               
   151 cn_y2[2,1]   B              2            -0               
   152 cn_y2[2,2]   B              2            -0               
   153 cn_y2[2,3]   B              2            -0               
   154 cn_y2[2,4]   B        1.33333            -0               
   155 cn_y2[2,5]   B       0.666667            -0               
   156 cn_y2[2,6]   B       0.666667            -0               
   157 cn_y2[2,7]   B       0.666667            -0               
   158 cn_y2[2,8]   B       0.666667            -0               
   159 cn_y2[2,9]   B       0.666667            -0               
   160 cn_y2[2,10]  B       0.666667            -0               
   161 cn_y2[2,11]  B       0.666667            -0               
   162 cn_y2[2,12]  B       0.666667            -0               
   163 cn_y2[2,13]  B       0.666667            -0               
   164 cn_y2[2,14]  B              0            -0               
   165 cn_y2[2,15]  B              0            -0               
   166 cn_y2[2,16]  B              0            -0               
   167 cn_y2[2,17]  B              0            -0               
   168 cn_y2[3,1]   B              2            -0               
   169 cn_y2[3,2]   B              2            -0               
   170 cn_y2[3,3]   B              2            -0               
   171 cn_y2[3,4]   B              2            -0               
   172 cn_y2[3,5]   B              2            -0               
   173 cn_y2[3,6]   B        1.33333            -0               
   174 cn_y2[3,7]   B       0.666667            -0               
   175 cn_y2[3,8]   B       0.666667            -0               
   176 cn_y2[3,9]   B       0.666667            -0               
   177 cn_y2[3,10]  B       0.666667            -0               
   178 cn_y2[3,11]  B       0.666667            -0               
   179 cn_y2[3,12]  B       0.666667            -0               
   180 cn_y2[3,13]  B       0.666667            -0               
   181 cn_y2[3,14]  B       0.666667            -0               
   182 cn_y2[3,15]  B              0            -0               
   183 cn_y2[3,16]  B              0            -0               
   184 cn_y2[3,17]  B              0            -0               
   185 cn_y2[4,1]   B              2            -0               
   186 cn_y2[4,2]   B              2            -0               
   187 cn_y2[4,3]   B              2            -0               
   188 cn_y2[4,4]   B              2            -0               
   189 cn_y2[4,5]   B              2            -0               
   190 cn_y2[4,6]   B              2            -0               
   191 cn_y2[4,7]   B              2            -0               
   192 cn_y2[4,8]   B        1.33333            -0               
   193 cn_y2[4,9]   B       0.666667            -0               
   194 cn_y2[4,10]  B       0.666667            -0               
   195 cn_y2[4,11]  B       0.666667            -0               
   196 cn_y2[4,12]  B       0.666667            -0               
   197 cn_y2[4,13]  B       0.666667            -0               
   198 cn_y2[4,14]  B       0.666667            -0               
   199 cn_y2[4,15]  B       0.666667            -0               
   200 cn_y2[4,16]  B              0            -0               
   201 cn_y2[4,17]  B              0            -0               
   202 cn_y2[5,1]   B              2            -0               
   203 cn_y2[5,2]   B              2            -0               
   204 cn_y2[5,3]   B              2            -0               
   205 cn_y2[5,4]   B              2            -0               
   206 cn_y2[5,5]   B              2            -0               
   207 cn_y2[5,6]   B              2            -0               
   208 cn_y2[5,7]   B              2            -0               
   209 cn_y2[5,8]   B              2            -0               
   210 cn_y2[5,9]   B              2            -0               
   211 cn_y2[5,10]  B        1.33333            -0               
   212 cn_y2[5,11]  B       0.666667            -0               
   213 cn_y2[5,12]  B       0.666667            -0               
   214 cn_y2[5,13]  B       0.666667            -0               
   215 cn_y2[5,14]  B       0.666667            -0               
   216 cn_y2[5,15]  B       0.666667            -0               
   217 cn_y2[5,16]  B       0.666667            -0               
   218 cn_y2[5,17]  B              0            -0               
   219 cn_y2[6,1]   B              2            -0               
   220 cn_y2[6,2]   B              2            -0               
   221 cn_y2[6,3]   B              2            -0               
   222 cn_y2[6,4]   B              2            -0               
   223 cn_y2[6,5]   B              2            -0               
   224 cn_y2[6,6]   B              2            -0               
   225 cn_y2[6,7]   B              2            -0               
   226 cn_y2[6,8]   B              2            -0               
   227 cn_y2[6,9]   B              2            -0               
   228 cn_y2[6,10]  B              2            -0               
   229 cn_y2[6,11]  B              2            -0               
   230 cn_y2[6,12]  B        1.33333            -0               
   231 cn_y2[6,13]  B       0.666667            -0               
   232 cn_y2[6,14]  B       0.666667            -0               
   233 cn_y2[6,15]  B       0.666667            -0               
   234 cn_y2[6,16]  B       0.666667            -0               
   235 cn_y2[6,17]  B              0            -0               
   236 uuu          NL             1             1                           2 

   No. Column name  St   Activity     Lower bound   Upper bound    Marginal
------ ------------ -- ------------- ------------- ------------- -------------
     1 x[1,1]       NU             1             0             1         < eps
     2 x[1,2]       B              1             0             1 
     3 x[1,3]       B              1             0             1 
     4 x[1,4]       NL             0             0             1         < eps
     5 x[1,5]       NL             0             0             1         < eps
     6 x[1,6]       NL             0             0             1         < eps
     7 x[1,7]       NL             0             0             1         < eps
     8 x[1,8]       NL             0             0             1         < eps
     9 x[1,9]       NL             0             0             1         < eps
    10 x[1,10]      NL             0             0             1         < eps
    11 x[1,11]      NL             0             0             1         < eps
    12 x[1,12]      NL             0             0             1         < eps
    13 x[1,13]      NL             0             0             1         < eps
    14 x[1,14]      NL             0             0             1         < eps
    15 x[1,15]      NL             0             0             1         < eps
    16 x[1,16]      NL             0             0             1         < eps
    17 x[1,17]      B              0             0             1 
    18 x[1,18]      NL             0             0             1         < eps
    19 x[2,1]       NL             0             0             1         < eps
    20 x[2,2]       NL             0             0             1         < eps
    21 x[2,3]       NL             0             0             1         < eps
    22 x[2,4]       B              1             0             1 
    23 x[2,5]       B              1             0             1 
    24 x[2,6]       NL             0             0             1         < eps
    25 x[2,7]       NL             0             0             1         < eps
    26 x[2,8]       NL             0             0             1         < eps
    27 x[2,9]       NL             0             0             1         < eps
    28 x[2,10]      NL             0             0             1         < eps
    29 x[2,11]      NL             0             0             1         < eps
    30 x[2,12]      B              0             0             1 
    31 x[2,13]      B              0             0             1 
    32 x[2,14]      B              1             0             1 
    33 x[2,15]      NL             0             0             1         < eps
    34 x[2,16]      NL             0             0             1         < eps
    35 x[2,17]      B              0             0             1 
    36 x[2,18]      NL             0             0             1         < eps
    37 x[3,1]       NL             0             0             1         < eps
    38 x[3,2]       NL             0             0             1         < eps
    39 x[3,3]       NL             0             0             1         < eps
    40 x[3,4]       NL             0             0             1         < eps
    41 x[3,5]       NL             0             0             1         < eps
    42 x[3,6]       B              1             0             1 
    43 x[3,7]       B              1             0             1 
    44 x[3,8]       NL             0             0             1         < eps
    45 x[3,9]       NL             0             0             1         < eps
    46 x[3,10]      NL             0             0             1         < eps
    47 x[3,11]      NL             0             0             1         < eps
    48 x[3,12]      NL             0             0             1         < eps
    49 x[3,13]      NL             0             0             1         < eps
    50 x[3,14]      NL             0             0             1         < eps
    51 x[3,15]      B              1             0             1 
    52 x[3,16]      NL             0             0             1         < eps
    53 x[3,17]      B              0             0             1 
    54 x[3,18]      NL             0             0             1         < eps
    55 x[4,1]       NL             0             0             1         < eps
    56 x[4,2]       NL             0             0             1         < eps
    57 x[4,3]       NL             0             0             1         < eps
    58 x[4,4]       NL             0             0             1         < eps
    59 x[4,5]       NL             0             0             1         < eps
    60 x[4,6]       NL             0             0             1         < eps
    61 x[4,7]       NL             0             0             1         < eps
    62 x[4,8]       B              1             0             1 
    63 x[4,9]       B              1             0             1 
    64 x[4,10]      NL             0             0             1         < eps
    65 x[4,11]      NL             0             0             1         < eps
    66 x[4,12]      NL             0             0             1         < eps
    67 x[4,13]      NL             0             0             1         < eps
    68 x[4,14]      NL             0             0             1         < eps
    69 x[4,15]      NL             0             0             1         < eps
    70 x[4,16]      B              1             0             1 
    71 x[4,17]      B              0             0             1 
    72 x[4,18]      NL             0             0             1         < eps
    73 x[5,1]       B              0             0             1 
    74 x[5,2]       B              0             0             1 
    75 x[5,3]       NL             0             0             1         < eps
    76 x[5,4]       NL             0             0             1         < eps
    77 x[5,5]       NL             0             0             1         < eps
    78 x[5,6]       NL             0             0             1         < eps
    79 x[5,7]       NL             0             0             1         < eps
    80 x[5,8]       NL             0             0             1         < eps
    81 x[5,9]       NL             0             0             1         < eps
    82 x[5,10]      B              1             0             1 
    83 x[5,11]      B              1             0             1 
    84 x[5,12]      NL             0             0             1         < eps
    85 x[5,13]      NL             0             0             1         < eps
    86 x[5,14]      B              0             0             1 
    87 x[5,15]      B              0             0             1 
    88 x[5,16]      B              0             0             1 
    89 x[5,17]      B              1             0             1 
    90 x[5,18]      NL             0             0             1         < eps
    91 x[6,1]       NL             0             0             1         < eps
    92 x[6,2]       B              0             0             1 
    93 x[6,3]       NL             0             0             1         < eps
    94 x[6,4]       NL             0             0             1         < eps
    95 x[6,5]       NL             0             0             1         < eps
    96 x[6,6]       NL             0             0             1         < eps
    97 x[6,7]       NL             0             0             1         < eps
    98 x[6,8]       NL             0             0             1         < eps
    99 x[6,9]       NL             0             0             1         < eps
   100 x[6,10]      NL             0             0             1         < eps
   101 x[6,11]      NL             0             0             1         < eps
   102 x[6,12]      NU             1             0             1         < eps
   103 x[6,13]      NU             1             0             1         < eps
   104 x[6,14]      NL             0             0             1         < eps
   105 x[6,15]      NL             0             0             1         < eps
   106 x[6,16]      NL             0             0             1         < eps
   107 x[6,17]      NL             0             0             1         < eps
   108 x[6,18]      B              1             0             1 
   109 y[1,1]       B       0.666667             0             1 
   110 y[1,2]       B       0.333333             0             1 
   111 y[1,3]       B              0             0             1 
   112 y[1,4]       B              0             0             1 
   113 y[1,5]       B              0             0             1 
   114 y[1,6]       B              0             0             1 
   115 y[1,7]       B              0             0             1 
   116 y[1,8]       B              0             0             1 
   117 y[1,9]       B              0             0             1 
   118 y[1,10]      B              0             0             1 
   119 y[1,11]      B              0             0             1 
   120 y[1,12]      B              0             0             1 
   121 y[1,13]      B              0             0             1 
   122 y[1,14]      B              0             0             1 
   123 y[1,15]      B              0             0             1 
   124 y[1,16]      NL             0             0             1         < eps
   125 y[1,17]      B              0             0             1 
   126 y[2,1]       B              1             0             1 
   127 y[2,2]       B              1             0             1 
   128 y[2,3]       B              1             0             1 
   129 y[2,4]       B       0.666667             0             1 
   130 y[2,5]       B       0.333333             0             1 
   131 y[2,6]       B       0.333333             0             1 
   132 y[2,7]       B       0.333333             0             1 
   133 y[2,8]       B       0.333333             0             1 
   134 y[2,9]       B       0.333333             0             1 
   135 y[2,10]      B       0.333333             0             1 
   136 y[2,11]      B       0.333333             0             1 
   137 y[2,12]      B       0.333333             0             1 
   138 y[2,13]      B       0.333333             0             1 
   139 y[2,14]      B              0             0             1 
   140 y[2,15]      B              0             0             1 
   141 y[2,16]      NL             0             0             1         < eps
   142 y[2,17]      B              0             0             1 
   143 y[3,1]       B              1             0             1 
   144 y[3,2]       B              1             0             1 
   145 y[3,3]       B              1             0             1 
   146 y[3,4]       B              1             0             1 
   147 y[3,5]       B              1             0             1 
   148 y[3,6]       B       0.666667             0             1 
   149 y[3,7]       B       0.333333             0             1 
   150 y[3,8]       B       0.333333             0             1 
   151 y[3,9]       B       0.333333             0             1 
   152 y[3,10]      B       0.333333             0             1 
   153 y[3,11]      B       0.333333             0             1 
   154 y[3,12]      B       0.333333             0             1 
   155 y[3,13]      B       0.333333             0             1 
   156 y[3,14]      B       0.333333             0             1 
   157 y[3,15]      B              0             0             1 
   158 y[3,16]      NL             0             0             1         < eps
   159 y[3,17]      B              0             0             1 
   160 y[4,1]       B              1             0             1 
   161 y[4,2]       B              1             0             1 
   162 y[4,3]       B              1             0             1 
   163 y[4,4]       B              1             0             1 
   164 y[4,5]       B              1             0             1 
   165 y[4,6]       B              1             0             1 
   166 y[4,7]       B              1             0             1 
   167 y[4,8]       B       0.666667             0             1 
   168 y[4,9]       B       0.333333             0             1 
   169 y[4,10]      B       0.333333             0             1 
   170 y[4,11]      B       0.333333             0             1 
   171 y[4,12]      B       0.333333             0             1 
   172 y[4,13]      B       0.333333             0             1 
   173 y[4,14]      B       0.333333             0             1 
   174 y[4,15]      B       0.333333             0             1 
   175 y[4,16]      NL             0             0             1         < eps
   176 y[4,17]      B              0             0             1 
   177 y[5,1]       B              1             0             1 
   178 y[5,2]       B              1             0             1 
   179 y[5,3]       B              1             0             1 
   180 y[5,4]       B              1             0             1 
   181 y[5,5]       B              1             0             1 
   182 y[5,6]       B              1             0             1 
   183 y[5,7]       B              1             0             1 
   184 y[5,8]       B              1             0             1 
   185 y[5,9]       B              1             0             1 
   186 y[5,10]      B       0.666667             0             1 
   187 y[5,11]      B       0.333333             0             1 
   188 y[5,12]      B       0.333333             0             1 
   189 y[5,13]      B       0.333333             0             1 
   190 y[5,14]      B       0.333333             0             1 
   191 y[5,15]      B       0.333333             0             1 
   192 y[5,16]      B       0.333333             0             1 
   193 y[5,17]      B              0             0             1 
   194 y[6,1]       B              1             0             1 
   195 y[6,2]       B              1             0             1 
   196 y[6,3]       B              1             0             1 
   197 y[6,4]       B              1             0             1 
   198 y[6,5]       B              1             0             1 
   199 y[6,6]       B              1             0             1 
   200 y[6,7]       B              1             0             1 
   201 y[6,8]       B              1             0             1 
   202 y[6,9]       B              1             0             1 
   203 y[6,10]      B              1             0             1 
   204 y[6,11]      B              1             0             1 
   205 y[6,12]      B       0.666667             0             1 
   206 y[6,13]      B       0.333333             0             1 
   207 y[6,14]      B       0.333333             0             1 
   208 y[6,15]      B       0.333333             0             1 
   209 y[6,16]      B       0.333333             0             1 
   210 y[6,17]      B              1             0             1 

Karush-Kuhn-Tucker optimality conditions:

KKT.PE: max.abs.err = 0.00e+000 on row 0
        max.rel.err = 0.00e+000 on row 0
        High quality

KKT.PB: max.abs.err = 0.00e+000 on row 0
        max.rel.err = 0.00e+000 on row 0
        High quality

KKT.DE: max.abs.err = 3.55e-015 on column 13
        max.rel.err = 1.59e-016 on column 13
        High quality

KKT.DB: max.abs.err = 0.00e+000 on row 0
        max.rel.err = 0.00e+000 on row 0
        High quality

End of output
